cantSalas = 1;
cantRamos = 14;
bloques = [1, 1, 1, 1, 2, 1, 2, 2, 1, 2, 1, 2, 1, 1];
capacidad = [80];
prioridad = [9, 2, 1, 3, 2, 8, 1, 1, 3, 4, 7, 2, 1, 3];
interes = [77, 56, 54, 57, 65, 47, 68, 80, 54, 71, 51, 66, 53, 45];
disponibilidad = array2d(1..cantRamos, 1..35, [
  true, false, false, false, true, false, true, false, true, false, false, true, false, true, true, false, false, false, false, true, true, false, false, true, true, true, false, true, false, true, false, false, true, true, false,
  true, false, true, false, true, true, true, false, true, false, false, false, false, true, true, false, true, true, true, true, true, true, true, true, true, false, false, true, true, true, true, true, true, true, true,
  true, true, true, false, true, true, true, true, false, true, false, false, true, false, true, false, true, false, true, true, false, false, true, true, false, false, true, true, true, true, true, true, false, true, true,
  false, false, false, true, true, true, false, false, true, true, false, true, false, false, false, true, true, false, false, true, false, true, true, false, true, true, false, false, false, false, false, true, false, true, true,
  false, true, true, false, true, false, false, true, true, false, false, false, true, true, true, false, false, false, false, true, false, false, false, true, false, false, true, false, false, false, true, true, true, true, true,
  true, false, true, false, true, true, true, true, true, false, true, true, true, true, true, true, true, false, true, false, true, true, true, false, false, true, false, true, true, true, true, true, true, true, true,
  true, true, true, true, true, true, false, true, false, false, false, false, true, true, true, true, true, true, false, false, false, true, true, true, true, false, true, true, true, true, true, true, true, true, true,
  true, true, false, true, false, true, false, true, true, true, true, true, true, false, true, true, true, true, true, false, true, true, true, true, false, false, true, false, true, true, true, true, true, true, false,
  false, false, false, false, false, false, false, false, true, false, true, true, false, false, false, true, true, true, true, true, true, false, false, true, false, false, false, false, true, true, true, false, true, true, false,
  true, true, true, true, true, true, true, true, false, false, true, true, false, true, true, true, false, true, true, true, true, true, true, false, true, false, true, false, true, false, false, false, false, false, false,
  true, true, true, true, true, true, true, true, true, true, false, false, true, false, true, true, true, true, true, false, false, false, true, true, true, true, true, false, false, false, true, true, true, false, true,
  false, false, false, true, false, true, false, true, true, false, true, false, true, false, true, true, true, true, false, true, false, true, false, true, true, false, true, true, false, false, true, true, true, false, false,
  true, true, false, true, true, true, false, true, true, false, true, true, true, false, true, false, false, true, false, true, false, true, true, true, false, true, false, false, true, true, true, false, true, false, false,
  true, false, false, false, false, true, false, false, true, true, true, true, false, false, false, true, false, true, true, true, false, false, true, true, true, true, true, false, true, true, true, false, true, true, true,
]);
